(set-logic ALL)
(declare-fun seed0_T_1 () Bool)
(declare-fun seed0_T_2 () Bool)
(declare-fun seed0_var_0xINPUT_437960 () String)
(assert (and (or (= seed0_T_1 (not (= "" seed0_var_0xINPUT_437960))) (str.suffixof (str.++ seed0_var_0xINPUT_437960 "EHrRIJ3M") (str.++ seed0_var_0xINPUT_437960 "PaRTSvLM"))) (or seed0_T_1 (and (str.suffixof (str.++ seed0_var_0xINPUT_437960 "0H3TNlWS6GngI") (str.++ seed0_var_0xINPUT_437960 "GHAZI")) (str.prefixof (str.++ seed0_var_0xINPUT_437960 "a9Tg3sXLF2m") (str.++ seed0_var_0xINPUT_437960 "YU4otTn3v9xH")))) (or (= seed0_T_2 (= seed0_var_0xINPUT_437960 "array")) (=> (str.contains (str.++ seed0_var_0xINPUT_437960 "N7O5v4B9F0pm") (str.++ seed0_var_0xINPUT_437960 "qgr")) (str.prefixof (str.++ seed0_var_0xINPUT_437960 "rHnc") (str.++ seed0_var_0xINPUT_437960 "jbHS2Y")))) (or seed0_T_2 (str.<= (str.++ seed0_var_0xINPUT_437960 "Nvbp1Gge9") (str.++ seed0_var_0xINPUT_437960 "")))))
(check-sat)
(exit)